%%%mzn-stat: initTime=0.002253153
%%%mzn-stat: objective=425
%%%mzn-stat: nodes=593
%%%mzn-stat: restarts=0
%%%mzn-stat: peakDepth=63
%%%mzn-stat: solveTime=0.017195049
%%%mzn-stat: variables=196
%%%mzn-stat: propagators=309
%%%mzn-stat: failures=470
%%%mzn-stat: propagations=43164
%%%mzn-stat: nogoods=470
%%%mzn-stat: AverageConflictSize=2.0829787234042554
%%%mzn-stat: NumUnitNogoodsLearned=424
%%%mzn-stat: AverageLearnedNogoodLength=1.5446808510638297
%%%mzn-stat: AverageBacktrackAmount=0
%%%mzn-stat: AverageLbd=1.2148936170212765
%%%mzn-stat-end
maxleg = 425;
succ = array1d(1..20,[15, 14, 16, 10, 19, 13, 9, 18, 3, 2, 1, 20, 7, 5, 8, 11, 12, 17, 6, 4]);
% time elapsed: 1.53 s
----------
==========
% time elapsed: 1.53 s
%%%mzn-stat: initTime=0.002253153
%%%mzn-stat: objective=425
%%%mzn-stat: nodes=593
%%%mzn-stat: restarts=0
%%%mzn-stat: peakDepth=63
%%%mzn-stat: solveTime=0.01719812
%%%mzn-stat: variables=196
%%%mzn-stat: propagators=309
%%%mzn-stat: failures=470
%%%mzn-stat: propagations=43164
%%%mzn-stat: nogoods=470
%%%mzn-stat: AverageConflictSize=2.0829787234042554
%%%mzn-stat: NumUnitNogoodsLearned=424
%%%mzn-stat: AverageLearnedNogoodLength=1.5446808510638297
%%%mzn-stat: AverageBacktrackAmount=0
%%%mzn-stat: AverageLbd=1.2148936170212765
%%%mzn-stat-end
